1600 3120
1 2 1
1 41 4
2 3 5
2 42 4
3 4 4
3 43 2
4 5 5
4 44 4
5 6 3
5 45 1
6 7 1
6 46 1
7 8 3
7 47 3
8 9 1
8 48 3
9 10 2
9 49 4
10 11 4
10 50 3
11 12 4
11 51 3
12 13 3
12 52 5
13 14 2
13 53 3
14 15 3
14 54 5
15 16 3
15 55 2
16 17 2
16 56 4
17 18 3
17 57 5
18 19 2
18 58 2
19 20 3
19 59 4
20 21 5
20 60 3
21 22 5
21 61 5
22 23 5
22 62 4
23 24 3
23 63 1
24 25 5
24 64 2
25 26 5
25 65 1
26 27 1
26 66 5
27 28 3
27 67 5
28 29 4
28 68 4
29 30 4
29 69 5
30 31 2
30 70 3
31 32 4
31 71 1
32 33 5
32 72 4
33 34 3
33 73 3
34 35 4
34 74 4
35 36 2
35 75 3
36 37 3
36 76 5
37 38 1
37 77 4
38 39 4
38 78 4
39 40 2
39 79 5
40 80 2
41 42 3
41 81 3
42 43 2
42 82 2
43 44 2
43 83 5
44 45 2
44 84 3
45 46 1
45 85 2
46 47 5
46 86 3
47 48 3
47 87 5
48 49 1
48 88 1
49 50 2
49 89 3
50 51 5
50 90 5
51 52 5
51 91 5
52 53 1
52 92 5
53 54 3
53 93 4
54 55 2
54 94 5
55 56 4
55 95 1
56 57 2
56 96 1
57 58 1
57 97 2
58 59 3
58 98 4
59 60 2
59 99 4
60 61 1
60 100 3
61 62 3
61 101 5
62 63 2
62 102 2
63 64 5
63 103 3
64 65 1
64 104 3
65 66 4
65 105 3
66 67 5
66 106 5
67 68 4
67 107 3
68 69 5
68 108 2
69 70 1
69 109 3
70 71 5
70 110 5
71 72 5
71 111 1
72 73 1
72 112 1
73 74 2
73 113 1
74 75 2
74 114 5
75 76 5
75 115 1
76 77 5
76 116 2
77 78 1
77 117 4
78 79 5
78 118 2
79 80 3
79 119 1
80 120 3
81 82 5
81 121 5
82 83 1
82 122 1
83 84 4
83 123 4
84 85 5
84 124 1
85 86 5
85 125 4
86 87 3
86 126 3
87 88 2
87 127 3
88 89 4
88 128 3
89 90 4
89 129 4
90 91 2
90 130 2
91 92 5
91 131 1
92 93 5
92 132 1
93 94 1
93 133 5
94 95 3
94 134 3
95 96 3
95 135 4
96 97 3
96 136 1
97 98 1
97 137 5
98 99 3
98 138 3
99 100 3
99 139 5
100 101 3
100 140 1
101 102 3
101 141 5
102 103 4
102 142 3
103 104 5
103 143 1
104 105 3
104 144 1
105 106 1
105 145 3
106 107 4
106 146 2
107 108 5
107 147 3
108 109 3
108 148 4
109 110 5
109 149 1
110 111 5
110 150 1
111 112 2
111 151 1
112 113 2
112 152 2
113 114 4
113 153 2
114 115 2
114 154 5
115 116 1
115 155 1
116 117 1
116 156 4
117 118 1
117 157 4
118 119 1
118 158 2
119 120 2
119 159 5
120 160 5
121 122 2
121 161 4
122 123 2
122 162 1
123 124 5
123 163 3
124 125 1
124 164 4
125 126 1
125 165 2
126 127 3
126 166 5
127 128 5
127 167 2
128 129 3
128 168 3
129 130 1
129 169 1
130 131 4
130 170 5
131 132 1
131 171 2
132 133 5
132 172 4
133 134 4
133 173 5
134 135 1
134 174 3
135 136 1
135 175 3
136 137 1
136 176 5
137 138 5
137 177 2
138 139 4
138 178 4
139 140 1
139 179 1
140 141 3
140 180 2
141 142 5
141 181 2
142 143 3
142 182 5
143 144 4
143 183 1
144 145 5
144 184 3
145 146 4
145 185 4
146 147 3
146 186 5
147 148 2
147 187 5
148 149 4
148 188 1
149 150 2
149 189 5
150 151 5
150 190 1
151 152 5
151 191 2
152 153 5
152 192 1
153 154 2
153 193 3
154 155 1
154 194 4
155 156 1
155 195 5
156 157 1
156 196 2
157 158 1
157 197 3
158 159 2
158 198 1
159 160 2
159 199 2
160 200 4
161 162 5
161 201 1
162 163 3
162 202 4
163 164 2
163 203 4
164 165 5
164 204 4
165 166 1
165 205 1
166 167 4
166 206 2
167 168 1
167 207 5
168 169 3
168 208 2
169 170 5
169 209 3
170 171 5
170 210 5
171 172 1
171 211 5
172 173 1
172 212 4
173 174 3
173 213 5
174 175 2
174 214 1
175 176 2
175 215 3
176 177 4
176 216 1
177 178 3
177 217 5
178 179 3
178 218 2
179 180 4
179 219 2
180 181 1
180 220 2
181 182 2
181 221 3
182 183 1
182 222 5
183 184 5
183 223 5
184 185 5
184 224 5
185 186 4
185 225 5
186 187 5
186 226 4
187 188 1
187 227 4
188 189 5
188 228 3
189 190 3
189 229 1
190 191 1
190 230 5
191 192 3
191 231 1
192 193 5
192 232 5
193 194 4
193 233 5
194 195 1
194 234 5
195 196 4
195 235 2
196 197 4
196 236 3
197 198 2
197 237 5
198 199 4
198 238 1
199 200 5
199 239 2
200 240 3
201 202 2
201 241 1
202 203 5
202 242 3
203 204 3
203 243 4
204 205 4
204 244 3
205 206 4
205 245 5
206 207 3
206 246 1
207 208 2
207 247 2
208 209 3
208 248 3
209 210 4
209 249 2
210 211 1
210 250 1
211 212 5
211 251 5
212 213 4
212 252 1
213 214 1
213 253 3
214 215 3
214 254 5
215 216 3
215 255 5
216 217 2
216 256 3
217 218 1
217 257 4
218 219 3
218 258 4
219 220 5
219 259 5
220 221 4
220 260 4
221 222 2
221 261 4
222 223 5
222 262 1
223 224 1
223 263 4
224 225 5
224 264 5
225 226 2
225 265 2
226 227 1
226 266 1
227 228 1
227 267 2
228 229 1
228 268 2
229 230 1
229 269 1
230 231 4
230 270 1
231 232 1
231 271 2
232 233 3
232 272 1
233 234 4
233 273 3
234 235 4
234 274 1
235 236 1
235 275 2
236 237 1
236 276 4
237 238 3
237 277 2
238 239 1
238 278 2
239 240 3
239 279 4
240 280 5
241 242 2
241 281 5
242 243 3
242 282 1
243 244 1
243 283 5
244 245 5
244 284 1
245 246 1
245 285 1
246 247 1
246 286 3
247 248 2
247 287 5
248 249 4
248 288 3
249 250 4
249 289 3
250 251 4
250 290 2
251 252 4
251 291 5
252 253 4
252 292 2
253 254 3
253 293 1
254 255 5
254 294 1
255 256 5
255 295 1
256 257 3
256 296 4
257 258 1
257 297 1
258 259 4
258 298 1
259 260 3
259 299 2
260 261 4
260 300 5
261 262 2
261 301 2
262 263 3
262 302 3
263 264 1
263 303 2
264 265 1
264 304 1
265 266 3
265 305 2
266 267 3
266 306 4
267 268 3
267 307 3
268 269 2
268 308 2
269 270 5
269 309 4
270 271 1
270 310 1
271 272 5
271 311 5
272 273 5
272 312 4
273 274 2
273 313 2
274 275 1
274 314 1
275 276 5
275 315 3
276 277 3
276 316 2
277 278 5
277 317 2
278 279 2
278 318 2
279 280 3
279 319 3
280 320 4
281 282 2
281 321 4
282 283 1
282 322 1
283 284 5
283 323 2
284 285 2
284 324 1
285 286 3
285 325 5
286 287 4
286 326 5
287 288 5
287 327 3
288 289 3
288 328 4
289 290 1
289 329 3
290 291 1
290 330 1
291 292 3
291 331 1
292 293 2
292 332 1
293 294 3
293 333 4
294 295 4
294 334 4
295 296 1
295 335 3
296 297 2
296 336 5
297 298 5
297 337 1
298 299 2
298 338 1
299 300 1
299 339 3
300 301 4
300 340 4
301 302 2
301 341 5
302 303 5
302 342 5
303 304 1
303 343 5
304 305 4
304 344 2
305 306 5
305 345 3
306 307 5
306 346 1
307 308 5
307 347 5
308 309 3
308 348 4
309 310 5
309 349 2
310 311 5
310 350 5
311 312 1
311 351 2
312 313 5
312 352 4
313 314 3
313 353 5
314 315 2
314 354 1
315 316 4
315 355 5
316 317 2
316 356 2
317 318 2
317 357 4
318 319 1
318 358 1
319 320 3
319 359 4
320 360 2
321 322 4
321 361 4
322 323 1
322 362 3
323 324 4
323 363 5
324 325 2
324 364 5
325 326 1
325 365 4
326 327 4
326 366 1
327 328 1
327 367 5
328 329 1
328 368 5
329 330 2
329 369 4
330 331 5
330 370 4
331 332 4
331 371 1
332 333 5
332 372 1
333 334 1
333 373 3
334 335 5
334 374 3
335 336 1
335 375 3
336 337 2
336 376 5
337 338 4
337 377 2
338 339 4
338 378 2
339 340 5
339 379 4
340 341 4
340 380 4
341 342 2
341 381 2
342 343 4
342 382 5
343 344 2
343 383 4
344 345 4
344 384 3
345 346 2
345 385 2
346 347 2
346 386 3
347 348 1
347 387 3
348 349 2
348 388 2
349 350 1
349 389 3
350 351 2
350 390 1
351 352 3
351 391 5
352 353 2
352 392 2
353 354 5
353 393 1
354 355 1
354 394 5
355 356 2
355 395 2
356 357 5
356 396 1
357 358 4
357 397 3
358 359 4
358 398 1
359 360 5
359 399 1
360 400 5
361 362 1
361 401 5
362 363 5
362 402 5
363 364 1
363 403 3
364 365 5
364 404 3
365 366 2
365 405 5
366 367 4
366 406 2
367 368 1
367 407 3
368 369 4
368 408 4
369 370 5
369 409 1
370 371 3
370 410 4
371 372 4
371 411 2
372 373 3
372 412 3
373 374 3
373 413 4
374 375 1
374 414 4
375 376 1
375 415 2
376 377 3
376 416 2
377 378 2
377 417 2
378 379 4
378 418 2
379 380 2
379 419 2
380 381 3
380 420 1
381 382 5
381 421 2
382 383 1
382 422 1
383 384 2
383 423 1
384 385 1
384 424 4
385 386 4
385 425 2
386 387 1
386 426 4
387 388 1
387 427 3
388 389 3
388 428 3
389 390 1
389 429 5
390 391 2
390 430 4
391 392 2
391 431 5
392 393 1
392 432 2
393 394 1
393 433 1
394 395 1
394 434 4
395 396 2
395 435 5
396 397 4
396 436 5
397 398 3
397 437 3
398 399 2
398 438 1
399 400 3
399 439 2
400 440 3
401 402 3
401 441 5
402 403 4
402 442 5
403 404 5
403 443 5
404 405 1
404 444 2
405 406 2
405 445 1
406 407 3
406 446 4
407 408 2
407 447 5
408 409 3
408 448 4
409 410 4
409 449 2
410 411 2
410 450 2
411 412 3
411 451 4
412 413 5
412 452 5
413 414 1
413 453 1
414 415 2
414 454 1
415 416 1
415 455 4
416 417 3
416 456 1
417 418 5
417 457 2
418 419 2
418 458 2
419 420 3
419 459 1
420 421 2
420 460 1
421 422 5
421 461 4
422 423 1
422 462 1
423 424 1
423 463 3
424 425 4
424 464 2
425 426 3
425 465 3
426 427 3
426 466 5
427 428 5
427 467 5
428 429 5
428 468 1
429 430 1
429 469 1
430 431 4
430 470 4
431 432 1
431 471 1
432 433 4
432 472 4
433 434 2
433 473 1
434 435 2
434 474 4
435 436 2
435 475 4
436 437 5
436 476 1
437 438 5
437 477 2
438 439 4
438 478 2
439 440 4
439 479 2
440 480 3
441 442 5
441 481 2
442 443 2
442 482 2
443 444 4
443 483 4
444 445 1
444 484 1
445 446 2
445 485 2
446 447 1
446 486 2
447 448 4
447 487 3
448 449 4
448 488 2
449 450 3
449 489 3
450 451 3
450 490 1
451 452 5
451 491 4
452 453 3
452 492 4
453 454 2
453 493 1
454 455 3
454 494 4
455 456 1
455 495 5
456 457 2
456 496 4
457 458 5
457 497 3
458 459 4
458 498 4
459 460 4
459 499 2
460 461 2
460 500 1
461 462 2
461 501 4
462 463 1
462 502 5
463 464 5
463 503 3
464 465 2
464 504 1
465 466 4
465 505 2
466 467 4
466 506 2
467 468 3
467 507 4
468 469 2
468 508 2
469 470 2
469 509 5
470 471 2
470 510 4
471 472 1
471 511 5
472 473 1
472 512 5
473 474 1
473 513 4
474 475 5
474 514 4
475 476 4
475 515 5
476 477 3
476 516 1
477 478 1
477 517 1
478 479 4
478 518 3
479 480 1
479 519 1
480 520 4
481 482 2
481 521 4
482 483 1
482 522 1
483 484 5
483 523 5
484 485 4
484 524 3
485 486 5
485 525 4
486 487 2
486 526 5
487 488 1
487 527 5
488 489 1
488 528 2
489 490 3
489 529 2
490 491 1
490 530 1
491 492 2
491 531 1
492 493 3
492 532 2
493 494 3
493 533 2
494 495 4
494 534 2
495 496 5
495 535 3
496 497 2
496 536 2
497 498 1
497 537 2
498 499 4
498 538 2
499 500 5
499 539 5
500 501 1
500 540 1
501 502 4
501 541 1
502 503 4
502 542 2
503 504 1
503 543 5
504 505 5
504 544 3
505 506 1
505 545 3
506 507 5
506 546 3
507 508 4
507 547 2
508 509 5
508 548 1
509 510 1
509 549 5
510 511 3
510 550 4
511 512 4
511 551 4
512 513 5
512 552 5
513 514 4
513 553 2
514 515 2
514 554 2
515 516 4
515 555 5
516 517 3
516 556 3
517 518 2
517 557 5
518 519 3
518 558 2
519 520 1
519 559 4
520 560 1
521 522 4
521 561 3
522 523 4
522 562 1
523 524 2
523 563 2
524 525 3
524 564 2
525 526 1
525 565 1
526 527 3
526 566 1
527 528 3
527 567 1
528 529 1
528 568 4
529 530 4
529 569 2
530 531 5
530 570 1
531 532 2
531 571 1
532 533 5
532 572 3
533 534 2
533 573 2
534 535 4
534 574 2
535 536 5
535 575 3
536 537 1
536 576 5
537 538 2
537 577 5
538 539 4
538 578 1
539 540 1
539 579 2
540 541 1
540 580 2
541 542 1
541 581 2
542 543 2
542 582 4
543 544 1
543 583 5
544 545 2
544 584 5
545 546 4
545 585 5
546 547 2
546 586 3
547 548 4
547 587 1
548 549 1
548 588 3
549 550 3
549 589 5
550 551 3
550 590 1
551 552 1
551 591 2
552 553 1
552 592 5
553 554 3
553 593 3
554 555 1
554 594 2
555 556 5
555 595 2
556 557 3
556 596 2
557 558 1
557 597 1
558 559 3
558 598 5
559 560 1
559 599 1
560 600 4
561 562 1
561 601 1
562 563 2
562 602 2
563 564 1
563 603 5
564 565 3
564 604 1
565 566 4
565 605 5
566 567 4
566 606 5
567 568 5
567 607 2
568 569 1
568 608 3
569 570 4
569 609 5
570 571 5
570 610 3
571 572 1
571 611 4
572 573 4
572 612 4
573 574 1
573 613 4
574 575 4
574 614 5
575 576 4
575 615 1
576 577 4
576 616 3
577 578 1
577 617 5
578 579 1
578 618 1
579 580 4
579 619 3
580 581 5
580 620 4
581 582 5
581 621 3
582 583 2
582 622 5
583 584 4
583 623 1
584 585 1
584 624 4
585 586 4
585 625 2
586 587 1
586 626 2
587 588 2
587 627 3
588 589 1
588 628 1
589 590 2
589 629 3
590 591 1
590 630 4
591 592 3
591 631 3
592 593 5
592 632 4
593 594 1
593 633 5
594 595 5
594 634 5
595 596 2
595 635 2
596 597 1
596 636 4
597 598 5
597 637 5
598 599 2
598 638 3
599 600 3
599 639 5
600 640 3
601 602 4
601 641 3
602 603 1
602 642 1
603 604 3
603 643 2
604 605 5
604 644 1
605 606 2
605 645 1
606 607 5
606 646 4
607 608 5
607 647 3
608 609 4
608 648 3
609 610 2
609 649 2
610 611 5
610 650 2
611 612 1
611 651 4
612 613 3
612 652 2
613 614 5
613 653 1
614 615 1
614 654 3
615 616 1
615 655 1
616 617 5
616 656 3
617 618 2
617 657 3
618 619 1
618 658 3
619 620 1
619 659 3
620 621 4
620 660 5
621 622 5
621 661 1
622 623 1
622 662 4
623 624 4
623 663 2
624 625 1
624 664 2
625 626 4
625 665 5
626 627 1
626 666 2
627 628 1
627 667 3
628 629 1
628 668 4
629 630 5
629 669 4
630 631 1
630 670 1
631 632 5
631 671 2
632 633 1
632 672 5
633 634 4
633 673 4
634 635 4
634 674 2
635 636 3
635 675 3
636 637 4
636 676 3
637 638 4
637 677 4
638 639 3
638 678 2
639 640 5
639 679 3
640 680 4
641 642 2
641 681 1
642 643 4
642 682 5
643 644 3
643 683 5
644 645 1
644 684 5
645 646 2
645 685 5
646 647 3
646 686 3
647 648 5
647 687 2
648 649 1
648 688 2
649 650 5
649 689 2
650 651 2
650 690 1
651 652 1
651 691 1
652 653 5
652 692 3
653 654 5
653 693 3
654 655 1
654 694 2
655 656 1
655 695 3
656 657 3
656 696 2
657 658 3
657 697 3
658 659 1
658 698 2
659 660 3
659 699 3
660 661 2
660 700 2
661 662 5
661 701 1
662 663 2
662 702 4
663 664 3
663 703 1
664 665 5
664 704 4
665 666 5
665 705 1
666 667 3
666 706 4
667 668 2
667 707 5
668 669 3
668 708 5
669 670 3
669 709 3
670 671 5
670 710 1
671 672 5
671 711 2
672 673 2
672 712 2
673 674 2
673 713 1
674 675 1
674 714 4
675 676 5
675 715 5
676 677 4
676 716 1
677 678 5
677 717 1
678 679 2
678 718 4
679 680 1
679 719 4
680 720 5
681 682 2
681 721 4
682 683 5
682 722 1
683 684 3
683 723 1
684 685 2
684 724 1
685 686 4
685 725 3
686 687 1
686 726 3
687 688 4
687 727 3
688 689 3
688 728 4
689 690 4
689 729 1
690 691 4
690 730 3
691 692 3
691 731 4
692 693 1
692 732 2
693 694 3
693 733 5
694 695 4
694 734 4
695 696 1
695 735 1
696 697 2
696 736 2
697 698 5
697 737 2
698 699 5
698 738 2
699 700 2
699 739 1
700 701 5
700 740 1
701 702 4
701 741 2
702 703 3
702 742 4
703 704 4
703 743 5
704 705 5
704 744 5
705 706 2
705 745 4
706 707 3
706 746 2
707 708 3
707 747 3
708 709 2
708 748 3
709 710 2
709 749 1
710 711 2
710 750 3
711 712 2
711 751 2
712 713 1
712 752 1
713 714 5
713 753 2
714 715 4
714 754 2
715 716 4
715 755 1
716 717 5
716 756 1
717 718 4
717 757 4
718 719 3
718 758 1
719 720 3
719 759 4
720 760 4
721 722 1
721 761 3
722 723 1
722 762 2
723 724 2
723 763 4
724 725 5
724 764 5
725 726 5
725 765 4
726 727 3
726 766 1
727 728 1
727 767 2
728 729 5
728 768 5
729 730 3
729 769 3
730 731 1
730 770 4
731 732 1
731 771 4
732 733 1
732 772 5
733 734 2
733 773 5
734 735 2
734 774 2
735 736 5
735 775 5
736 737 5
736 776 1
737 738 4
737 777 1
738 739 5
738 778 5
739 740 3
739 779 3
740 741 3
740 780 2
741 742 4
741 781 2
742 743 5
742 782 3
743 744 3
743 783 3
744 745 4
744 784 2
745 746 1
745 785 5
746 747 3
746 786 2
747 748 4
747 787 2
748 749 1
748 788 5
749 750 1
749 789 1
750 751 5
750 790 4
751 752 2
751 791 2
752 753 2
752 792 1
753 754 4
753 793 1
754 755 2
754 794 1
755 756 2
755 795 3
756 757 5
756 796 3
757 758 1
757 797 5
758 759 4
758 798 5
759 760 5
759 799 4
760 800 5
761 762 1
761 801 4
762 763 2
762 802 1
763 764 3
763 803 5
764 765 2
764 804 3
765 766 4
765 805 3
766 767 5
766 806 2
767 768 4
767 807 1
768 769 5
768 808 4
769 770 5
769 809 5
770 771 1
770 810 5
771 772 4
771 811 2
772 773 3
772 812 1
773 774 2
773 813 4
774 775 3
774 814 5
775 776 5
775 815 2
776 777 2
776 816 5
777 778 3
777 817 5
778 779 2
778 818 2
779 780 2
779 819 5
780 781 1
780 820 3
781 782 4
781 821 4
782 783 3
782 822 2
783 784 1
783 823 2
784 785 1
784 824 3
785 786 2
785 825 3
786 787 4
786 826 5
787 788 3
787 827 1
788 789 3
788 828 5
789 790 2
789 829 1
790 791 5
790 830 3
791 792 4
791 831 2
792 793 5
792 832 5
793 794 1
793 833 1
794 795 2
794 834 5
795 796 1
795 835 3
796 797 2
796 836 4
797 798 4
797 837 5
798 799 2
798 838 3
799 800 4
799 839 5
800 840 5
801 802 5
801 841 3
802 803 3
802 842 4
803 804 3
803 843 2
804 805 4
804 844 1
805 806 1
805 845 4
806 807 2
806 846 3
807 808 3
807 847 2
808 809 5
808 848 3
809 810 5
809 849 5
810 811 1
810 850 2
811 812 2
811 851 1
812 813 1
812 852 2
813 814 2
813 853 4
814 815 3
814 854 2
815 816 3
815 855 4
816 817 5
816 856 3
817 818 5
817 857 3
818 819 2
818 858 3
819 820 5
819 859 5
820 821 5
820 860 2
821 822 4
821 861 2
822 823 5
822 862 2
823 824 4
823 863 4
824 825 5
824 864 4
825 826 5
825 865 1
826 827 4
826 866 5
827 828 3
827 867 3
828 829 3
828 868 2
829 830 3
829 869 5
830 831 5
830 870 5
831 832 2
831 871 3
832 833 4
832 872 1
833 834 2
833 873 3
834 835 2
834 874 1
835 836 4
835 875 3
836 837 4
836 876 4
837 838 4
837 877 2
838 839 4
838 878 5
839 840 2
839 879 3
840 880 3
841 842 2
841 881 2
842 843 5
842 882 4
843 844 5
843 883 1
844 845 2
844 884 4
845 846 4
845 885 2
846 847 4
846 886 2
847 848 5
847 887 5
848 849 4
848 888 5
849 850 1
849 889 3
850 851 5
850 890 4
851 852 5
851 891 3
852 853 2
852 892 2
853 854 4
853 893 4
854 855 3
854 894 1
855 856 5
855 895 1
856 857 5
856 896 3
857 858 2
857 897 5
858 859 1
858 898 2
859 860 4
859 899 4
860 861 5
860 900 1
861 862 2
861 901 4
862 863 3
862 902 3
863 864 3
863 903 5
864 865 3
864 904 3
865 866 1
865 905 1
866 867 5
866 906 2
867 868 3
867 907 2
868 869 4
868 908 5
869 870 1
869 909 5
870 871 5
870 910 1
871 872 1
871 911 5
872 873 4
872 912 4
873 874 3
873 913 2
874 875 2
874 914 2
875 876 3
875 915 5
876 877 2
876 916 3
877 878 4
877 917 2
878 879 1
878 918 1
879 880 4
879 919 5
880 920 5
881 882 4
881 921 3
882 883 5
882 922 4
883 884 5
883 923 5
884 885 3
884 924 2
885 886 3
885 925 5
886 887 1
886 926 1
887 888 3
887 927 3
888 889 1
888 928 3
889 890 5
889 929 3
890 891 2
890 930 5
891 892 5
891 931 1
892 893 4
892 932 3
893 894 1
893 933 1
894 895 4
894 934 3
895 896 1
895 935 3
896 897 5
896 936 2
897 898 2
897 937 4
898 899 4
898 938 4
899 900 5
899 939 5
900 901 3
900 940 5
901 902 5
901 941 5
902 903 5
902 942 1
903 904 4
903 943 1
904 905 3
904 944 2
905 906 2
905 945 5
906 907 4
906 946 5
907 908 2
907 947 3
908 909 3
908 948 3
909 910 3
909 949 2
910 911 4
910 950 5
911 912 5
911 951 1
912 913 3
912 952 5
913 914 2
913 953 4
914 915 4
914 954 2
915 916 1
915 955 5
916 917 3
916 956 4
917 918 1
917 957 5
918 919 3
918 958 5
919 920 4
919 959 3
920 960 4
921 922 1
921 961 4
922 923 2
922 962 5
923 924 4
923 963 5
924 925 5
924 964 4
925 926 1
925 965 5
926 927 4
926 966 2
927 928 3
927 967 1
928 929 4
928 968 2
929 930 4
929 969 1
930 931 4
930 970 3
931 932 2
931 971 4
932 933 4
932 972 3
933 934 3
933 973 4
934 935 2
934 974 5
935 936 2
935 975 3
936 937 2
936 976 1
937 938 1
937 977 5
938 939 4
938 978 2
939 940 2
939 979 3
940 941 2
940 980 3
941 942 1
941 981 5
942 943 4
942 982 5
943 944 3
943 983 3
944 945 4
944 984 3
945 946 3
945 985 2
946 947 3
946 986 3
947 948 3
947 987 2
948 949 5
948 988 3
949 950 2
949 989 1
950 951 2
950 990 5
951 952 3
951 991 1
952 953 1
952 992 2
953 954 2
953 993 5
954 955 5
954 994 3
955 956 4
955 995 2
956 957 4
956 996 2
957 958 2
957 997 3
958 959 3
958 998 3
959 960 2
959 999 3
960 1000 2
961 962 1
961 1001 2
962 963 2
962 1002 2
963 964 3
963 1003 1
964 965 1
964 1004 5
965 966 5
965 1005 4
966 967 1
966 1006 2
967 968 5
967 1007 5
968 969 1
968 1008 3
969 970 2
969 1009 5
970 971 2
970 1010 4
971 972 3
971 1011 1
972 973 2
972 1012 2
973 974 4
973 1013 1
974 975 1
974 1014 3
975 976 2
975 1015 4
976 977 3
976 1016 1
977 978 4
977 1017 3
978 979 5
978 1018 3
979 980 1
979 1019 5
980 981 3
980 1020 3
981 982 3
981 1021 2
982 983 2
982 1022 5
983 984 2
983 1023 3
984 985 4
984 1024 2
985 986 3
985 1025 5
986 987 5
986 1026 5
987 988 4
987 1027 5
988 989 2
988 1028 1
989 990 1
989 1029 3
990 991 3
990 1030 5
991 992 5
991 1031 2
992 993 2
992 1032 1
993 994 5
993 1033 4
994 995 4
994 1034 2
995 996 4
995 1035 2
996 997 2
996 1036 1
997 998 2
997 1037 2
998 999 1
998 1038 4
999 1000 3
999 1039 3
1000 1040 4
1001 1002 2
1001 1041 5
1002 1003 4
1002 1042 4
1003 1004 2
1003 1043 4
1004 1005 2
1004 1044 2
1005 1006 5
1005 1045 2
1006 1007 3
1006 1046 3
1007 1008 3
1007 1047 1
1008 1009 1
1008 1048 1
1009 1010 4
1009 1049 2
1010 1011 3
1010 1050 5
1011 1012 3
1011 1051 2
1012 1013 2
1012 1052 1
1013 1014 5
1013 1053 4
1014 1015 5
1014 1054 2
1015 1016 2
1015 1055 2
1016 1017 5
1016 1056 3
1017 1018 5
1017 1057 2
1018 1019 2
1018 1058 5
1019 1020 3
1019 1059 4
1020 1021 5
1020 1060 5
1021 1022 5
1021 1061 4
1022 1023 1
1022 1062 1
1023 1024 1
1023 1063 1
1024 1025 2
1024 1064 5
1025 1026 5
1025 1065 3
1026 1027 1
1026 1066 3
1027 1028 5
1027 1067 3
1028 1029 1
1028 1068 3
1029 1030 2
1029 1069 5
1030 1031 1
1030 1070 2
1031 1032 5
1031 1071 1
1032 1033 3
1032 1072 1
1033 1034 1
1033 1073 2
1034 1035 1
1034 1074 2
1035 1036 4
1035 1075 5
1036 1037 4
1036 1076 2
1037 1038 2
1037 1077 3
1038 1039 4
1038 1078 2
1039 1040 2
1039 1079 4
1040 1080 3
1041 1042 3
1041 1081 5
1042 1043 2
1042 1082 5
1043 1044 5
1043 1083 2
1044 1045 3
1044 1084 5
1045 1046 4
1045 1085 2
1046 1047 5
1046 1086 5
1047 1048 3
1047 1087 1
1048 1049 4
1048 1088 1
1049 1050 1
1049 1089 2
1050 1051 3
1050 1090 5
1051 1052 2
1051 1091 3
1052 1053 4
1052 1092 2
1053 1054 5
1053 1093 4
1054 1055 1
1054 1094 4
1055 1056 1
1055 1095 3
1056 1057 2
1056 1096 2
1057 1058 4
1057 1097 4
1058 1059 3
1058 1098 5
1059 1060 1
1059 1099 5
1060 1061 5
1060 1100 2
1061 1062 4
1061 1101 5
1062 1063 5
1062 1102 4
1063 1064 3
1063 1103 4
1064 1065 3
1064 1104 4
1065 1066 5
1065 1105 3
1066 1067 4
1066 1106 5
1067 1068 2
1067 1107 1
1068 1069 2
1068 1108 1
1069 1070 1
1069 1109 2
1070 1071 1
1070 1110 5
1071 1072 2
1071 1111 3
1072 1073 2
1072 1112 1
1073 1074 1
1073 1113 5
1074 1075 3
1074 1114 3
1075 1076 3
1075 1115 2
1076 1077 2
1076 1116 3
1077 1078 2
1077 1117 1
1078 1079 1
1078 1118 1
1079 1080 1
1079 1119 3
1080 1120 4
1081 1082 2
1081 1121 1
1082 1083 1
1082 1122 2
1083 1084 1
1083 1123 1
1084 1085 4
1084 1124 3
1085 1086 4
1085 1125 2
1086 1087 3
1086 1126 3
1087 1088 3
1087 1127 1
1088 1089 4
1088 1128 4
1089 1090 1
1089 1129 3
1090 1091 3
1090 1130 2
1091 1092 3
1091 1131 3
1092 1093 3
1092 1132 1
1093 1094 2
1093 1133 4
1094 1095 2
1094 1134 3
1095 1096 2
1095 1135 3
1096 1097 5
1096 1136 2
1097 1098 2
1097 1137 5
1098 1099 3
1098 1138 4
1099 1100 2
1099 1139 4
1100 1101 2
1100 1140 1
1101 1102 2
1101 1141 1
1102 1103 2
1102 1142 1
1103 1104 3
1103 1143 5
1104 1105 4
1104 1144 5
1105 1106 1
1105 1145 2
1106 1107 5
1106 1146 2
1107 1108 4
1107 1147 3
1108 1109 1
1108 1148 5
1109 1110 4
1109 1149 1
1110 1111 5
1110 1150 1
1111 1112 2
1111 1151 4
1112 1113 1
1112 1152 2
1113 1114 3
1113 1153 5
1114 1115 1
1114 1154 5
1115 1116 5
1115 1155 4
1116 1117 4
1116 1156 4
1117 1118 4
1117 1157 3
1118 1119 4
1118 1158 2
1119 1120 1
1119 1159 3
1120 1160 4
1121 1122 4
1121 1161 5
1122 1123 3
1122 1162 4
1123 1124 2
1123 1163 1
1124 1125 4
1124 1164 3
1125 1126 4
1125 1165 2
1126 1127 2
1126 1166 2
1127 1128 1
1127 1167 4
1128 1129 4
1128 1168 2
1129 1130 3
1129 1169 3
1130 1131 5
1130 1170 5
1131 1132 2
1131 1171 4
1132 1133 4
1132 1172 4
1133 1134 5
1133 1173 2
1134 1135 2
1134 1174 5
1135 1136 2
1135 1175 3
1136 1137 5
1136 1176 5
1137 1138 1
1137 1177 1
1138 1139 2
1138 1178 4
1139 1140 1
1139 1179 5
1140 1141 1
1140 1180 3
1141 1142 3
1141 1181 1
1142 1143 3
1142 1182 5
1143 1144 1
1143 1183 1
1144 1145 1
1144 1184 3
1145 1146 2
1145 1185 3
1146 1147 1
1146 1186 5
1147 1148 3
1147 1187 4
1148 1149 3
1148 1188 1
1149 1150 5
1149 1189 1
1150 1151 1
1150 1190 3
1151 1152 1
1151 1191 5
1152 1153 3
1152 1192 1
1153 1154 1
1153 1193 5
1154 1155 1
1154 1194 2
1155 1156 4
1155 1195 5
1156 1157 4
1156 1196 1
1157 1158 4
1157 1197 3
1158 1159 3
1158 1198 3
1159 1160 4
1159 1199 5
1160 1200 3
1161 1162 4
1161 1201 3
1162 1163 2
1162 1202 4
1163 1164 5
1163 1203 5
1164 1165 5
1164 1204 5
1165 1166 5
1165 1205 4
1166 1167 4
1166 1206 4
1167 1168 4
1167 1207 2
1168 1169 1
1168 1208 1
1169 1170 5
1169 1209 4
1170 1171 5
1170 1210 3
1171 1172 1
1171 1211 5
1172 1173 1
1172 1212 1
1173 1174 2
1173 1213 3
1174 1175 1
1174 1214 4
1175 1176 5
1175 1215 3
1176 1177 2
1176 1216 4
1177 1178 5
1177 1217 1
1178 1179 3
1178 1218 4
1179 1180 1
1179 1219 4
1180 1181 2
1180 1220 5
1181 1182 1
1181 1221 4
1182 1183 5
1182 1222 5
1183 1184 4
1183 1223 5
1184 1185 3
1184 1224 2
1185 1186 4
1185 1225 4
1186 1187 2
1186 1226 4
1187 1188 1
1187 1227 4
1188 1189 2
1188 1228 5
1189 1190 1
1189 1229 1
1190 1191 3
1190 1230 5
1191 1192 1
1191 1231 4
1192 1193 5
1192 1232 5
1193 1194 5
1193 1233 1
1194 1195 5
1194 1234 5
1195 1196 5
1195 1235 4
1196 1197 1
1196 1236 2
1197 1198 3
1197 1237 1
1198 1199 2
1198 1238 1
1199 1200 3
1199 1239 2
1200 1240 4
1201 1202 5
1201 1241 3
1202 1203 2
1202 1242 1
1203 1204 1
1203 1243 3
1204 1205 4
1204 1244 5
1205 1206 3
1205 1245 4
1206 1207 2
1206 1246 4
1207 1208 3
1207 1247 3
1208 1209 4
1208 1248 3
1209 1210 5
1209 1249 1
1210 1211 5
1210 1250 5
1211 1212 4
1211 1251 3
1212 1213 4
1212 1252 3
1213 1214 2
1213 1253 2
1214 1215 4
1214 1254 5
1215 1216 4
1215 1255 3
1216 1217 1
1216 1256 1
1217 1218 4
1217 1257 3
1218 1219 2
1218 1258 2
1219 1220 1
1219 1259 3
1220 1221 2
1220 1260 3
1221 1222 4
1221 1261 4
1222 1223 2
1222 1262 1
1223 1224 4
1223 1263 4
1224 1225 5
1224 1264 2
1225 1226 4
1225 1265 4
1226 1227 5
1226 1266 5
1227 1228 1
1227 1267 1
1228 1229 2
1228 1268 1
1229 1230 5
1229 1269 3
1230 1231 1
1230 1270 2
1231 1232 1
1231 1271 2
1232 1233 3
1232 1272 3
1233 1234 1
1233 1273 2
1234 1235 3
1234 1274 2
1235 1236 5
1235 1275 2
1236 1237 1
1236 1276 5
1237 1238 2
1237 1277 2
1238 1239 5
1238 1278 4
1239 1240 1
1239 1279 3
1240 1280 3
1241 1242 5
1241 1281 5
1242 1243 2
1242 1282 3
1243 1244 3
1243 1283 1
1244 1245 5
1244 1284 5
1245 1246 5
1245 1285 1
1246 1247 1
1246 1286 3
1247 1248 2
1247 1287 2
1248 1249 5
1248 1288 2
1249 1250 4
1249 1289 1
1250 1251 2
1250 1290 1
1251 1252 1
1251 1291 1
1252 1253 2
1252 1292 2
1253 1254 4
1253 1293 5
1254 1255 3
1254 1294 2
1255 1256 1
1255 1295 5
1256 1257 1
1256 1296 4
1257 1258 5
1257 1297 5
1258 1259 2
1258 1298 2
1259 1260 3
1259 1299 5
1260 1261 2
1260 1300 2
1261 1262 4
1261 1301 5
1262 1263 2
1262 1302 5
1263 1264 5
1263 1303 1
1264 1265 1
1264 1304 2
1265 1266 1
1265 1305 2
1266 1267 5
1266 1306 3
1267 1268 5
1267 1307 2
1268 1269 5
1268 1308 4
1269 1270 3
1269 1309 5
1270 1271 4
1270 1310 1
1271 1272 3
1271 1311 3
1272 1273 5
1272 1312 1
1273 1274 5
1273 1313 3
1274 1275 4
1274 1314 3
1275 1276 5
1275 1315 1
1276 1277 2
1276 1316 1
1277 1278 3
1277 1317 5
1278 1279 4
1278 1318 4
1279 1280 5
1279 1319 1
1280 1320 3
1281 1282 2
1281 1321 2
1282 1283 4
1282 1322 3
1283 1284 4
1283 1323 5
1284 1285 1
1284 1324 4
1285 1286 1
1285 1325 2
1286 1287 4
1286 1326 5
1287 1288 5
1287 1327 2
1288 1289 5
1288 1328 3
1289 1290 3
1289 1329 1
1290 1291 2
1290 1330 4
1291 1292 3
1291 1331 1
1292 1293 3
1292 1332 5
1293 1294 5
1293 1333 5
1294 1295 5
1294 1334 3
1295 1296 2
1295 1335 3
1296 1297 1
1296 1336 1
1297 1298 2
1297 1337 2
1298 1299 5
1298 1338 2
1299 1300 1
1299 1339 2
1300 1301 3
1300 1340 1
1301 1302 4
1301 1341 4
1302 1303 2
1302 1342 5
1303 1304 3
1303 1343 3
1304 1305 2
1304 1344 5
1305 1306 4
1305 1345 1
1306 1307 5
1306 1346 4
1307 1308 1
1307 1347 1
1308 1309 2
1308 1348 3
1309 1310 5
1309 1349 1
1310 1311 4
1310 1350 3
1311 1312 2
1311 1351 1
1312 1313 1
1312 1352 2
1313 1314 4
1313 1353 3
1314 1315 5
1314 1354 3
1315 1316 2
1315 1355 5
1316 1317 2
1316 1356 5
1317 1318 4
1317 1357 3
1318 1319 2
1318 1358 3
1319 1320 4
1319 1359 1
1320 1360 4
1321 1322 2
1321 1361 4
1322 1323 1
1322 1362 2
1323 1324 5
1323 1363 5
1324 1325 1
1324 1364 4
1325 1326 5
1325 1365 2
1326 1327 4
1326 1366 5
1327 1328 3
1327 1367 5
1328 1329 2
1328 1368 4
1329 1330 3
1329 1369 3
1330 1331 4
1330 1370 2
1331 1332 4
1331 1371 2
1332 1333 5
1332 1372 2
1333 1334 5
1333 1373 5
1334 1335 2
1334 1374 5
1335 1336 3
1335 1375 3
1336 1337 3
1336 1376 1
1337 1338 5
1337 1377 5
1338 1339 5
1338 1378 5
1339 1340 4
1339 1379 2
1340 1341 5
1340 1380 2
1341 1342 4
1341 1381 3
1342 1343 4
1342 1382 4
1343 1344 2
1343 1383 3
1344 1345 2
1344 1384 5
1345 1346 4
1345 1385 5
1346 1347 2
1346 1386 2
1347 1348 5
1347 1387 2
1348 1349 4
1348 1388 2
1349 1350 4
1349 1389 3
1350 1351 1
1350 1390 1
1351 1352 2
1351 1391 3
1352 1353 5
1352 1392 2
1353 1354 1
1353 1393 4
1354 1355 4
1354 1394 3
1355 1356 2
1355 1395 5
1356 1357 3
1356 1396 4
1357 1358 1
1357 1397 1
1358 1359 4
1358 1398 5
1359 1360 3
1359 1399 3
1360 1400 3
1361 1362 3
1361 1401 3
1362 1363 5
1362 1402 2
1363 1364 3
1363 1403 2
1364 1365 5
1364 1404 1
1365 1366 1
1365 1405 4
1366 1367 2
1366 1406 5
1367 1368 1
1367 1407 1
1368 1369 4
1368 1408 2
1369 1370 4
1369 1409 3
1370 1371 3
1370 1410 4
1371 1372 2
1371 1411 3
1372 1373 3
1372 1412 2
1373 1374 3
1373 1413 3
1374 1375 5
1374 1414 2
1375 1376 5
1375 1415 1
1376 1377 4
1376 1416 1
1377 1378 5
1377 1417 4
1378 1379 2
1378 1418 3
1379 1380 2
1379 1419 2
1380 1381 3
1380 1420 1
1381 1382 3
1381 1421 2
1382 1383 3
1382 1422 1
1383 1384 1
1383 1423 4
1384 1385 4
1384 1424 3
1385 1386 2
1385 1425 5
1386 1387 1
1386 1426 2
1387 1388 3
1387 1427 3
1388 1389 1
1388 1428 5
1389 1390 2
1389 1429 5
1390 1391 5
1390 1430 3
1391 1392 3
1391 1431 3
1392 1393 2
1392 1432 5
1393 1394 3
1393 1433 5
1394 1395 4
1394 1434 4
1395 1396 3
1395 1435 4
1396 1397 5
1396 1436 4
1397 1398 2
1397 1437 1
1398 1399 1
1398 1438 5
1399 1400 1
1399 1439 4
1400 1440 5
1401 1402 2
1401 1441 3
1402 1403 2
1402 1442 1
1403 1404 3
1403 1443 1
1404 1405 3
1404 1444 1
1405 1406 1
1405 1445 5
1406 1407 4
1406 1446 3
1407 1408 2
1407 1447 3
1408 1409 1
1408 1448 4
1409 1410 1
1409 1449 3
1410 1411 2
1410 1450 2
1411 1412 5
1411 1451 2
1412 1413 3
1412 1452 2
1413 1414 3
1413 1453 4
1414 1415 2
1414 1454 3
1415 1416 5
1415 1455 1
1416 1417 5
1416 1456 2
1417 1418 1
1417 1457 2
1418 1419 2
1418 1458 2
1419 1420 1
1419 1459 2
1420 1421 4
1420 1460 2
1421 1422 2
1421 1461 2
1422 1423 1
1422 1462 3
1423 1424 4
1423 1463 4
1424 1425 2
1424 1464 1
1425 1426 1
1425 1465 1
1426 1427 2
1426 1466 4
1427 1428 3
1427 1467 4
1428 1429 4
1428 1468 5
1429 1430 2
1429 1469 2
1430 1431 1
1430 1470 1
1431 1432 5
1431 1471 1
1432 1433 2
1432 1472 5
1433 1434 3
1433 1473 4
1434 1435 5
1434 1474 1
1435 1436 4
1435 1475 2
1436 1437 5
1436 1476 3
1437 1438 2
1437 1477 2
1438 1439 3
1438 1478 4
1439 1440 1
1439 1479 2
1440 1480 2
1441 1442 3
1441 1481 3
1442 1443 4
1442 1482 4
1443 1444 5
1443 1483 5
1444 1445 4
1444 1484 5
1445 1446 2
1445 1485 4
1446 1447 3
1446 1486 5
1447 1448 1
1447 1487 1
1448 1449 4
1448 1488 1
1449 1450 3
1449 1489 5
1450 1451 1
1450 1490 3
1451 1452 1
1451 1491 3
1452 1453 4
1452 1492 1
1453 1454 4
1453 1493 2
1454 1455 3
1454 1494 5
1455 1456 2
1455 1495 3
1456 1457 3
1456 1496 2
1457 1458 2
1457 1497 5
1458 1459 2
1458 1498 2
1459 1460 4
1459 1499 1
1460 1461 4
1460 1500 2
1461 1462 5
1461 1501 2
1462 1463 5
1462 1502 2
1463 1464 2
1463 1503 3
1464 1465 4
1464 1504 3
1465 1466 1
1465 1505 4
1466 1467 2
1466 1506 2
1467 1468 1
1467 1507 3
1468 1469 1
1468 1508 1
1469 1470 1
1469 1509 2
1470 1471 3
1470 1510 5
1471 1472 2
1471 1511 5
1472 1473 2
1472 1512 4
1473 1474 1
1473 1513 4
1474 1475 2
1474 1514 1
1475 1476 1
1475 1515 1
1476 1477 1
1476 1516 2
1477 1478 4
1477 1517 3
1478 1479 5
1478 1518 5
1479 1480 5
1479 1519 5
1480 1520 3
1481 1482 1
1481 1521 1
1482 1483 5
1482 1522 3
1483 1484 2
1483 1523 5
1484 1485 5
1484 1524 5
1485 1486 4
1485 1525 1
1486 1487 2
1486 1526 4
1487 1488 1
1487 1527 4
1488 1489 4
1488 1528 4
1489 1490 1
1489 1529 5
1490 1491 5
1490 1530 3
1491 1492 4
1491 1531 1
1492 1493 5
1492 1532 5
1493 1494 1
1493 1533 2
1494 1495 1
1494 1534 2
1495 1496 2
1495 1535 2
1496 1497 5
1496 1536 4
1497 1498 2
1497 1537 3
1498 1499 4
1498 1538 4
1499 1500 4
1499 1539 5
1500 1501 1
1500 1540 3
1501 1502 5
1501 1541 2
1502 1503 3
1502 1542 1
1503 1504 5
1503 1543 2
1504 1505 4
1504 1544 3
1505 1506 1
1505 1545 3
1506 1507 2
1506 1546 2
1507 1508 4
1507 1547 2
1508 1509 5
1508 1548 2
1509 1510 2
1509 1549 1
1510 1511 2
1510 1550 5
1511 1512 4
1511 1551 5
1512 1513 5
1512 1552 5
1513 1514 1
1513 1553 3
1514 1515 1
1514 1554 5
1515 1516 5
1515 1555 4
1516 1517 4
1516 1556 5
1517 1518 4
1517 1557 1
1518 1519 3
1518 1558 2
1519 1520 5
1519 1559 5
1520 1560 1
1521 1522 3
1521 1561 5
1522 1523 3
1522 1562 2
1523 1524 3
1523 1563 3
1524 1525 3
1524 1564 4
1525 1526 1
1525 1565 4
1526 1527 4
1526 1566 1
1527 1528 1
1527 1567 1
1528 1529 5
1528 1568 1
1529 1530 2
1529 1569 2
1530 1531 3
1530 1570 4
1531 1532 1
1531 1571 2
1532 1533 1
1532 1572 1
1533 1534 3
1533 1573 2
1534 1535 3
1534 1574 5
1535 1536 4
1535 1575 5
1536 1537 5
1536 1576 1
1537 1538 3
1537 1577 4
1538 1539 4
1538 1578 4
1539 1540 3
1539 1579 3
1540 1541 4
1540 1580 3
1541 1542 3
1541 1581 3
1542 1543 2
1542 1582 1
1543 1544 4
1543 1583 5
1544 1545 4
1544 1584 5
1545 1546 2
1545 1585 1
1546 1547 5
1546 1586 1
1547 1548 3
1547 1587 1
1548 1549 5
1548 1588 2
1549 1550 4
1549 1589 1
1550 1551 3
1550 1590 2
1551 1552 2
1551 1591 3
1552 1553 4
1552 1592 3
1553 1554 4
1553 1593 5
1554 1555 5
1554 1594 2
1555 1556 3
1555 1595 2
1556 1557 3
1556 1596 2
1557 1558 3
1557 1597 2
1558 1559 3
1558 1598 4
1559 1560 4
1559 1599 2
1560 1600 5
1561 1562 3
1562 1563 4
1563 1564 1
1564 1565 5
1565 1566 4
1566 1567 4
1567 1568 1
1568 1569 3
1569 1570 3
1570 1571 4
1571 1572 3
1572 1573 5
1573 1574 5
1574 1575 4
1575 1576 2
1576 1577 4
1577 1578 5
1578 1579 3
1579 1580 4
1580 1581 3
1581 1582 1
1582 1583 4
1583 1584 4
1584 1585 3
1585 1586 1
1586 1587 1
1587 1588 5
1588 1589 1
1589 1590 1
1590 1591 3
1591 1592 1
1592 1593 1
1593 1594 1
1594 1595 2
1595 1596 3
1596 1597 4
1597 1598 5
1598 1599 2
1599 1600 1
